
  22   10
  10   10   10   10   10   10   10   10   10   10

   0   0   0   0   0   0   0   0   0   0   0   5 2 3 4 5 7 
   7   0   0  10   0   0   0   0   0   0   0   3 9 8 6 
   9   0  10   0   0   0   0   0   0   0   0   2 8 6 
   6   0  10   0   0   0   0   0   0   0   0   2 8 6 
   6   0   0   0   0   0   0   0   0  10   0   3 12 11 9 
   1  10   0   0   0   0   0   0   0   0   0   3 12 11 10 
   3   0   0   0   0   0   0   0   0  10   0   2 12 10 
   5   0   0   0   0   0   0   0   0  10   0   4 16 15 14 13 
   5   0   0   0   0   0   0   0   0   0  10   1 10 
   8   0   0   0  10   0   0   0   0   0   0   3 16 14 13 
   8   0  10   0   0   0   0   0   0   0   0   3 19 17 15 
   8   0   0   0   0   0   0  10   0   0   0   2 15 14 
   2   0  10   0   0   0   0   0   0   0   0   2 21 17 
   3   0   0   0   0   0   0   0   0  10   0   2 19 18 
   7  10   0   0   0   0   0   0   0   0   0   2 21 20 
   3   0   0   0   0  10   0   0   0   0   0   2 20 19 
   6   0   0   0   0   0   0   0   0   0  10   1 18 
   8   0  10   0   0   0   0   0   0   0   0   1 22
   6   0   0  10   0   0   0   0   0   0   0   1 22
   5   0   0   0   0  10   0   0   0   0   0   1 22
   6   0   0   0   0   0   0  10   0   0   0   1 22
   0   0   0   0   0   0   0   0   0   0   0   0 
